0 115 
1 118 
2 124 
3 129 
4 127 
5 127 
6 125 
7 124 
8 123 
9 122 
10 121 
11 121 
12 120 
13 118 
14 120 
15 120 
16 120 
17 118 
18 116 
19 114 
20 116 
21 118 
22 118 
23 121 
24 122 
25 121 
26 121 
27 122 
28 123 
29 123 
30 122 
31 122 
32 121 
33 120 
34 119 
35 118 
36 117 
37 116 
38 115 
39 114 
40 113 
41 112 
42 111 
43 114 
44 112 
45 109 
46 108 
47 107 
48 105 
49 106 
50 107 
51 109 
52 108 
53 107 
54 103 
55 101 
56 98 
57 101 
58 99 
59 100 
60 101 
61 104 
62 103 
63 102 
64 105 
65 106 
66 106 
67 105 
68 105 
69 105 
70 105 
71 103 
72 105 
73 106 
74 107 
75 107 
76 106 
77 106 
78 105 
79 104 
80 103 
81 102 
82 101 
83 99 
84 99 
85 98 
86 97 
87 95 
88 93 
89 92 
90 91 
91 89 
92 89 
93 90 
94 89 
95 90 
96 85 
97 83 
98 82 
99 83 
100 83 
101 83 
102 81 
103 80 
104 81 
105 92 
106 93 
107 92 
108 91 
109 89 
110 89 
111 88 
112 86 
113 85 
114 81 
115 80 
116 80 
117 78 
118 76 
119 76 
120 76 
121 74 
122 73 
123 70 
124 68 
125 66 
126 66 
127 65 
128 62 
129 60 
130 58 
131 56 
132 55 
133 56 
134 55 
135 55 
136 52 
137 50 
138 49 
139 46 
140 46 
141 45 
142 49 
143 48 
144 46 
145 47 
146 47 
147 46 
148 47 
149 46 
150 43 
151 43 
152 41 
153 39 
154 40 
155 39 
156 38 
157 35 
158 34 
159 34 
160 35 
161 34 
162 33 
163 33 
164 32 
165 30 
166 28 
167 27 
168 27 
169 31 
170 32 
171 32 
172 31 
173 32 
174 32 
175 31 
176 32 
177 30 
178 27 
179 26 
180 26 
181 27 
182 26 
183 24 
184 23 
185 22 
186 24 
187 22 
188 21 
189 21 
190 20 
191 18 
192 18 
193 18 
194 17 
195 15 
196 15 
197 15 
198 14 
199 14 
200 16 
201 15 
202 14 
203 16 
204 14 
205 12 
206 10 
207 9 
208 8 
209 7 
210 7 
211 6 
212 5 
213 5 
214 5 
215 4 
216 3 
217 2 
218 1 
219 2 
220 1 
221 0 
222 0 

